n = 8;
h = [| 4,5,6,8,3,7,8,1 |
       1,1,1,4,8,6,7,2 |
       5,4,7,6,3,1,2,8 |
       7,4,5,3,2,8,1,6 |
       2,2,2,7,1,4,4,4 |
       8,7,4,5,5,2,6,3 |
       6,7,8,5,5,4,3,2 |
       3,3,3,2,4,6,1,7 |];